144764 97467421
15
12 172146 171173 973341
17 863779 474135 584407 
29 447798 537676 350694 
17 749326 866505 629980 
29 804948 23248 458658 
23 439115 985792 175733 
1 276807 589015 912341 
25 250131 887014 37510 
25 574539 10850 851116 
13 484984 951874 127553 
15 489550 478246 744614 
13 861102 374593 952123 
23 914192 927132 312043 
23 912923 4128 170639 
9 109494 82979 402504